71 34 68 81 33 18 
2 76 65 59 49 32 93 91 17 
61 
37 86 39 3 70 
26 
31 92 88 40 41 12 15 30 63 22 47 85 96 8 14 1 35 
7 83 98 5 51 21 23 74 
69 29 45 9 13 16 100 
53 87 
99 78 80 
19 38 54 84 
94 46 
28 4 
60 
44 72 90 97 20 25 
67 27 66 52 89 24 
82 75 42 11 36 6 62 73 64 10 48 95 79 50 57 43 56 55 77 58 

